benchmark/results/graph__15-1000-0.10-02_9/graph__15-1000-0.10-02_9_QuintonOs_Benders_aux.lp
\ This file has been generated by DOcplex
\ ENCODING=ISO-8859-1
\Problem name: Quinton Bounded Benders_auxiliary_sub

Minimize
 obj: 0.001412429379 pi_nr_a0 + 0.001400548402 pi_nr_a1
      + 0.002242158365 pi_nr_a2 + 0.001686340641 pi_nr_a3
      + 0.001043841336 pi_nr_a4 + 0.000976562500 pi_nr_a5
      + 0.000848730647 pi_nr_a6 + 0.001912045889 pi_nr_a7
      + 0.001206272618 pi_nr_a8 + 0.000980392157 pi_nr_a9
      + 0.001275360592 pi_nr_a10 + 0.000772797527 pi_nr_a11
      + 0.001792100059 pi_nr_a12 + 0.001136363636 pi_nr_a13
      + 0.001508253950 pi_nr_a14 + pi_p_a1_a2 + 2 pi_p_a0_a5 + pi_p_a3_a10
      + pi_p_a14_a13 + pi_p_a8_a10 + pi_p_a3_a11 + pi_p_a10_a5 + pi_p_a6_a5
      + pi_p_a4_a8 + pi_p_a14_a2 + 1.039978027344 pi_d_a0_a1_proc_0
      + 0.039001464844 pi_d_a1_a0_proc_0 + 1.508785368697 pi_d_a0_a2_proc_0
      - 0.495349007521 pi_d_a2_a0_proc_0 - 0.297004949479 pi_d_a0_a4_proc_0
      + 1.297004949479 pi_d_a4_a0_proc_0 + 1291.941431565699 pi_d_a0_a6_proc_0
      + 1292.003930947301 pi_d_a6_a0_proc_0 + 1.641378196555 pi_d_a0_a10_proc_0
      + 0.625711436131 pi_d_a10_a0_proc_0 + 1310.914029666969 pi_d_a0_a12_proc_0
      + 1278.043583996159 pi_d_a12_a0_proc_0 + 1.795264945875 pi_d_a0_a13_proc_0
      - 0.795264945875 pi_d_a13_a0_proc_0 + 1.179893564959 pi_d_a0_a14_proc_0
      + 0.175514773046 pi_d_a14_a0_proc_0 + 1.045777383713 pi_d_a1_a2_proc_0
      + 2588.953361530349 pi_d_a1_a2_proc_1 + 0.046638469650 pi_d_a2_a1_proc_0
      + 2587.954222616287 pi_d_a2_a1_proc_1
      + 1310.895538330078 pi_d_a1_a3_proc_1
      + 1278.025482177735 pi_d_a3_a1_proc_1 - 0.321305166931 pi_d_a1_a4_proc_0
      + 1.400284659119 pi_d_a4_a1_proc_0 + 1310.960025542926 pi_d_a1_a5_proc_1
      + 1277.960994964887 pi_d_a5_a1_proc_1
      + 1277.993100731658 pi_d_a1_a6_proc_0
      + 1282.968758726471 pi_d_a1_a6_proc_1
      + 1306.031241273529 pi_d_a6_a1_proc_0
      + 1311.006899268342 pi_d_a6_a1_proc_1
      + 1282.154495233428 pi_d_a1_a7_proc_1
      + 1306.766525274385 pi_d_a7_a1_proc_1
      + 1280.480697627810 pi_d_a1_a8_proc_1
      + 1308.440322880002 pi_d_a8_a1_proc_1
      + 1282.150462852373 pi_d_a1_a9_proc_1
      + 1306.770557655439 pi_d_a9_a1_proc_1 + 1.673440438370 pi_d_a1_a10_proc_0
      + 2588.327371313496 pi_d_a1_a10_proc_1 + 0.672628686503 pi_d_a10_a1_proc_0
      + 2587.326559561630 pi_d_a10_a1_proc_1
      + 1310.960021972656 pi_d_a1_a11_proc_1
      + 1277.960998535156 pi_d_a11_a1_proc_1
      + 1280.338886384194 pi_d_a1_a12_proc_0
      + 1280.302293228879 pi_d_a1_a12_proc_1
      + 1308.697706771121 pi_d_a12_a1_proc_0
      + 1308.661113615806 pi_d_a12_a1_proc_1 + 1.793867557760 pi_d_a1_a13_proc_0
      - 0.714888065573 pi_d_a13_a1_proc_0 + 1.210479566888 pi_d_a1_a14_proc_0
      + 2588.776091736695 pi_d_a1_a14_proc_1 + 0.223908263304 pi_d_a14_a1_proc_0
      + 2587.789520433112 pi_d_a14_a1_proc_1
      + 1277.993424700884 pi_d_a2_a3_proc_1
      + 1310.993138937941 pi_d_a3_a2_proc_1 - 1.266778451233 pi_d_a2_a4_proc_0
      + 2.280214812408 pi_d_a4_a2_proc_0 + 1310.993198750719 pi_d_a2_a5_proc_1
      + 1277.993364888106 pi_d_a5_a2_proc_1
      + 1308.446284758606 pi_d_a2_a6_proc_0
      + 1313.487485884430 pi_d_a2_a6_proc_1
      + 1275.512514115569 pi_d_a6_a2_proc_0
      + 1280.553715241394 pi_d_a6_a2_proc_1
      + 1310.993193558925 pi_d_a2_a7_proc_1
      + 1277.993370079899 pi_d_a7_a2_proc_1
      + 1282.143096468157 pi_d_a2_a8_proc_1
      + 1306.843467170668 pi_d_a8_a2_proc_1
      + 1310.993130585687 pi_d_a2_a9_proc_1
      + 1277.993433053138 pi_d_a9_a2_proc_1 + 0.665233356106 pi_d_a2_a10_proc_0
      + 2587.384707362245 pi_d_a2_a10_proc_1 + 1.615292637755 pi_d_a10_a2_proc_0
      + 2588.334766643893 pi_d_a10_a2_proc_1
      + 1306.868193564512 pi_d_a2_a11_proc_1
      + 1282.118370074312 pi_d_a11_a2_proc_1
      + 1310.985214242654 pi_d_a2_a12_proc_0
      + 1311.014164218351 pi_d_a2_a12_proc_1
      + 1277.985835781649 pi_d_a12_a2_proc_0
      + 1278.014785757346 pi_d_a12_a2_proc_1 + 1.006801126347 pi_d_a2_a13_proc_0
      + 0.006635234829 pi_d_a13_a2_proc_0 + 0.182142056123 pi_d_a2_a14_proc_0
      + 2587.813297356942 pi_d_a2_a14_proc_1 + 1.186702643058 pi_d_a14_a2_proc_0
      + 2588.817857943877 pi_d_a14_a2_proc_1 + 1.999999996275 pi_d_a3_a5_proc_1
      - 0.999999996275 pi_d_a5_a3_proc_1 + 3.683568434301 pi_d_a3_a6_proc_1
      + 2.371069052700 pi_d_a6_a3_proc_1 + 1.125004053134 pi_d_a3_a7_proc_1
      - 0.125004053134 pi_d_a7_a3_proc_1 + 0.634126705631 pi_d_a3_a8_proc_1
      + 0.365873294369 pi_d_a8_a3_proc_1 + 0.999999998038 pi_d_a3_a9_proc_1
      + 0.000000001962 pi_d_a9_a3_proc_1 + 1291.338842748002 pi_d_a3_a10_proc_1
      + 1296.394067619311 pi_d_a10_a3_proc_1 + pi_d_a3_a11_proc_1
      + 2.020454142067 pi_d_a3_a12_proc_1 - 0.978067805195 pi_d_a12_a3_proc_1
      + 1308.370796214350 pi_d_a3_a14_proc_1
      + 1280.273795447645 pi_d_a14_a3_proc_1
      + 1295.257837518133 pi_d_a4_a6_proc_0
      + 1288.687524994866 pi_d_a6_a4_proc_0 + 2.631122973165 pi_d_a4_a10_proc_0
      - 0.364033340479 pi_d_a10_a4_proc_0 + 1280.299429871787 pi_d_a4_a12_proc_0
      + 1308.658183791341 pi_d_a12_a4_proc_0 + 2.281709504489 pi_d_a4_a13_proc_0
      - 1.281709504489 pi_d_a13_a4_proc_0 + 2.165577239721 pi_d_a4_a14_proc_0
      - 0.810168901716 pi_d_a14_a4_proc_0 + 2.560521539976 pi_d_a5_a6_proc_1
      + 3.494115947025 pi_d_a6_a5_proc_1 + pi_d_a7_a5_proc_1 - pi_d_a5_a8_proc_1
      + 2 pi_d_a8_a5_proc_1 - 0.214056262924 pi_d_a5_a9_proc_1
      + 1.214056262924 pi_d_a9_a5_proc_1 + 1310.358131951912 pi_d_a5_a10_proc_1
      + 1277.374778415402 pi_d_a10_a5_proc_1 - 0.656251178633 pi_d_a5_a11_proc_1
      + 1.656251178633 pi_d_a11_a5_proc_1 + 0.021471594915 pi_d_a5_a12_proc_1
      + 1.020914741957 pi_d_a12_a5_proc_1 + 1277.824667806200 pi_d_a5_a14_proc_1
      + 1310.819923855795 pi_d_a14_a5_proc_1 + 3.558568434301 pi_d_a6_a7_proc_1
      + 2.496069052699 pi_d_a7_a6_proc_1 + 2.500238991920 pi_d_a6_a8_proc_1
      + 3.554398495081 pi_d_a8_a6_proc_1 + 2.560521558745 pi_d_a6_a9_proc_1
      + 3.494115928255 pi_d_a9_a6_proc_1 + 1309.018356885937 pi_d_a6_a10_proc_0
      + 1312.805904740251 pi_d_a6_a10_proc_1
      + 1276.194095259749 pi_d_a10_a6_proc_0
      + 1279.981643114063 pi_d_a10_a6_proc_1 + 2.606666945614 pi_d_a6_a11_proc_1
      + 3.447970541387 pi_d_a11_a6_proc_1 + 2586.482476229603 pi_d_a6_a12_proc_0
      + 3.579500053476 pi_d_a6_a12_proc_1 + 2585.420499946524 pi_d_a12_a6_proc_0
      + 2.517523770397 pi_d_a12_a6_proc_1 + 1308.441431565699 pi_d_a6_a13_proc_0
      + 1275.503930947301 pi_d_a13_a6_proc_0
      + 1275.683527239607 pi_d_a6_a14_proc_0
      + 1280.382756388603 pi_d_a6_a14_proc_1
      + 1308.617243611397 pi_d_a14_a6_proc_0
      + 1313.316472760393 pi_d_a14_a6_proc_1 - 0.250149492468 pi_d_a7_a8_proc_1
      + 1.250149492468 pi_d_a8_a7_proc_1 - 0.000000000000 pi_d_a7_a9_proc_1
      + pi_d_a9_a7_proc_1 + 1279.888513391355 pi_d_a7_a10_proc_1
      + 1307.844396975958 pi_d_a10_a7_proc_1 + 0.010820394741 pi_d_a7_a11_proc_1
      + 0.989179605259 pi_d_a11_a7_proc_1 + 1.021455216887 pi_d_a7_a12_proc_1
      + 0.020931119986 pi_d_a12_a7_proc_1 + 1277.824493100475 pi_d_a7_a14_proc_1
      + 1310.820098561520 pi_d_a14_a7_proc_1 + 1.000023368980 pi_d_a8_a9_proc_1
      - 0.000023368980 pi_d_a9_a8_proc_1 + 1310.358621553780 pi_d_a8_a10_proc_1
      + 1277.374288813534 pi_d_a10_a8_proc_1 + 1.000015264678 pi_d_a8_a11_proc_1
      - 0.000015264678 pi_d_a11_a8_proc_1 + 2.020462276355 pi_d_a8_a12_proc_1
      - 0.978075939483 pi_d_a12_a8_proc_1 + 1277.856856992317 pi_d_a8_a14_proc_1
      + 1310.787734669678 pi_d_a14_a8_proc_1
      + 1277.374777834258 pi_d_a9_a10_proc_1
      + 1310.358132533056 pi_d_a10_a9_proc_1 + 0.339559806928 pi_d_a9_a11_proc_1
      + 0.660440193072 pi_d_a11_a9_proc_1 + 1.109406878964 pi_d_a9_a12_proc_1
      - 0.067020542092 pi_d_a12_a9_proc_1 + 1291.966149422592 pi_d_a9_a14_proc_1
      + 1296.678442239403 pi_d_a14_a9_proc_1
      + 1307.844396398656 pi_d_a10_a11_proc_1
      + 1279.888513968658 pi_d_a11_a10_proc_1
      + 1278.620916783381 pi_d_a10_a12_proc_0
      + 1277.396213487567 pi_d_a10_a12_proc_1
      + 1311.603786512433 pi_d_a12_a10_proc_0
      + 1310.379083216619 pi_d_a12_a10_proc_1
      + 1.641378446161 pi_d_a10_a13_proc_0 + 0.625711186525 pi_d_a13_a10_proc_0
      + 0.801218085990 pi_d_a10_a14_proc_0
      + 2587.178720115299 pi_d_a10_a14_proc_1
      + 1.821279884700 pi_d_a14_a10_proc_0
      + 2588.198781914009 pi_d_a14_a10_proc_1
      + 1.021454229680 pi_d_a11_a12_proc_1 + 0.020932107192 pi_d_a12_a11_proc_1
      + 1277.890964842104 pi_d_a11_a14_proc_1
      + 1310.753626819891 pi_d_a14_a11_proc_1
      + 1310.978544783113 pi_d_a12_a13_proc_0
      + 1277.979068880015 pi_d_a13_a12_proc_0
      + 1311.154416826971 pi_d_a12_a14_proc_0
      + 1310.841394825838 pi_d_a12_a14_proc_1
      + 1278.158605174162 pi_d_a14_a12_proc_0
      + 1277.845583173029 pi_d_a14_a12_proc_1
      + 0.180038767582 pi_d_a13_a14_proc_0 + 1.175369570423 pi_d_a14_a13_proc_0
      + pi_y2_a0_proc_0 + 0.999969482422 pi_y2_a1_proc_0
      + 0.000030517578 pi_y2_a1_proc_1 + 0.999994808207 pi_y2_a2_proc_0
      + 0.000005191793 pi_y2_a2_proc_1 + pi_y2_a3_proc_1 + pi_y2_a4_proc_0
      + pi_y2_a5_proc_1 + 0.001953105675 pi_y2_a6_proc_0
      + 0.998046894325 pi_y2_a6_proc_1 + pi_y2_a7_proc_1 + pi_y2_a8_proc_1
      + pi_y2_a9_proc_1 + 0.999510398133 pi_y2_a10_proc_0
      + 0.000489601867 pi_y2_a10_proc_1 + pi_y2_a11_proc_1
      + 0.000016378028 pi_y2_a12_proc_0 + 0.999983621972 pi_y2_a12_proc_1
      + pi_y2_a13_proc_0 + 0.999862670658 pi_y2_a14_proc_0
      + 0.000137329342 pi_y2_a14_proc_1
Subject To
 c1: 0.001412429379 pi_nr_a0 + 0.001400560224 pi_nr_a1 + 0.002242152466 pi_nr_a2
     + 0.001686340641 pi_nr_a3 + 0.001043841336 pi_nr_a4
     + 0.000976562500 pi_nr_a5 + 0.000847457627 pi_nr_a6
     + 0.001912045889 pi_nr_a7 + 0.001206272618 pi_nr_a8
     + 0.000980392157 pi_nr_a9 + 0.001275510204 pi_nr_a10
     + 0.000772797527 pi_nr_a11 + 0.001792114695 pi_nr_a12
     + 0.001136363636 pi_nr_a13 + 0.001508295626 pi_nr_a14 + pi_p_a1_a2
     + 2 pi_p_a0_a5 + pi_p_a3_a10 + pi_p_a14_a13 + pi_p_a8_a10 + pi_p_a3_a11
     + pi_p_a10_a5 + pi_p_a6_a5 + pi_p_a4_a8 + pi_p_a14_a2 + pi_d_a0_a1_proc_0
     + 2 pi_d_a0_a2_proc_0 - pi_d_a2_a0_proc_0 + pi_d_a4_a0_proc_0
     + 1278 pi_d_a0_a6_proc_0 + 1311 pi_d_a6_a0_proc_0 + pi_d_a0_a10_proc_0
     + 1311 pi_d_a0_a12_proc_0 + 1278 pi_d_a12_a0_proc_0 + 2 pi_d_a0_a13_proc_0
     - pi_d_a13_a0_proc_0 + pi_d_a0_a14_proc_0 + pi_d_a1_a2_proc_0
     + 2589 pi_d_a1_a2_proc_1 + 2588 pi_d_a2_a1_proc_1 + 1311 pi_d_a1_a3_proc_1
     + 1278 pi_d_a3_a1_proc_1 + pi_d_a4_a1_proc_0 + 1311 pi_d_a1_a5_proc_1
     + 1278 pi_d_a5_a1_proc_1 + 1278 pi_d_a1_a6_proc_0 + 1278 pi_d_a1_a6_proc_1
     + 1311 pi_d_a6_a1_proc_0 + 1311 pi_d_a6_a1_proc_1 + 1278 pi_d_a1_a7_proc_1
     + 1311 pi_d_a7_a1_proc_1 + 1278 pi_d_a1_a8_proc_1 + 1311 pi_d_a8_a1_proc_1
     + 1278 pi_d_a1_a9_proc_1 + 1311 pi_d_a9_a1_proc_1 + pi_d_a1_a10_proc_0
     + 2589 pi_d_a1_a10_proc_1 + 2588 pi_d_a10_a1_proc_1
     + 1311 pi_d_a1_a11_proc_1 + 1278 pi_d_a11_a1_proc_1
     + 1278 pi_d_a1_a12_proc_0 + 1278 pi_d_a1_a12_proc_1
     + 1311 pi_d_a12_a1_proc_0 + 1311 pi_d_a12_a1_proc_1 + 2 pi_d_a1_a13_proc_0
     - pi_d_a13_a1_proc_0 + pi_d_a1_a14_proc_0 + 2589 pi_d_a1_a14_proc_1
     + 2588 pi_d_a14_a1_proc_1 + 1278 pi_d_a2_a3_proc_1 + 1311 pi_d_a3_a2_proc_1
     - pi_d_a2_a4_proc_0 + 2 pi_d_a4_a2_proc_0 + 1311 pi_d_a2_a5_proc_1
     + 1278 pi_d_a5_a2_proc_1 + 1311 pi_d_a2_a6_proc_0 + 1311 pi_d_a2_a6_proc_1
     + 1278 pi_d_a6_a2_proc_0 + 1278 pi_d_a6_a2_proc_1 + 1311 pi_d_a2_a7_proc_1
     + 1278 pi_d_a7_a2_proc_1 + 1278 pi_d_a2_a8_proc_1 + 1311 pi_d_a8_a2_proc_1
     + 1311 pi_d_a2_a9_proc_1 + 1278 pi_d_a9_a2_proc_1 + 2588 pi_d_a2_a10_proc_1
     + pi_d_a10_a2_proc_0 + 2589 pi_d_a10_a2_proc_1 + 1311 pi_d_a2_a11_proc_1
     + 1278 pi_d_a11_a2_proc_1 + 1311 pi_d_a2_a12_proc_0
     + 1311 pi_d_a2_a12_proc_1 + 1278 pi_d_a12_a2_proc_0
     + 1278 pi_d_a12_a2_proc_1 + pi_d_a2_a13_proc_0 + 2588 pi_d_a2_a14_proc_1
     + pi_d_a14_a2_proc_0 + 2589 pi_d_a14_a2_proc_1 + 2 pi_d_a3_a5_proc_1
     - pi_d_a5_a3_proc_1 + pi_d_a3_a6_proc_1 + pi_d_a3_a7_proc_1
     + pi_d_a3_a8_proc_1 + pi_d_a3_a9_proc_1 + 1278 pi_d_a3_a10_proc_1
     + 1311 pi_d_a10_a3_proc_1 + pi_d_a3_a11_proc_1 + 2 pi_d_a3_a12_proc_1
     - pi_d_a12_a3_proc_1 + 1311 pi_d_a3_a14_proc_1 + 1278 pi_d_a14_a3_proc_1
     + 1311 pi_d_a4_a6_proc_0 + 1278 pi_d_a6_a4_proc_0 + 2 pi_d_a4_a10_proc_0
     - pi_d_a10_a4_proc_0 + 1278 pi_d_a4_a12_proc_0 + 1311 pi_d_a12_a4_proc_0
     + 2 pi_d_a4_a13_proc_0 - pi_d_a13_a4_proc_0 + 2 pi_d_a4_a14_proc_0
     - pi_d_a14_a4_proc_0 + pi_d_a6_a5_proc_1 + pi_d_a7_a5_proc_1
     - pi_d_a5_a8_proc_1 + 2 pi_d_a8_a5_proc_1 + pi_d_a9_a5_proc_1
     + 1311 pi_d_a5_a10_proc_1 + 1278 pi_d_a10_a5_proc_1 - pi_d_a5_a11_proc_1
     + 2 pi_d_a11_a5_proc_1 + pi_d_a12_a5_proc_1 + 1278 pi_d_a5_a14_proc_1
     + 1311 pi_d_a14_a5_proc_1 + pi_d_a6_a7_proc_1 + pi_d_a8_a6_proc_1
     + pi_d_a9_a6_proc_1 + 1311 pi_d_a6_a10_proc_0 + 1311 pi_d_a6_a10_proc_1
     + 1278 pi_d_a10_a6_proc_0 + 1278 pi_d_a10_a6_proc_1 + pi_d_a11_a6_proc_1
     + 2589 pi_d_a6_a12_proc_0 + pi_d_a6_a12_proc_1 + 2588 pi_d_a12_a6_proc_0
     + 1311 pi_d_a6_a13_proc_0 + 1278 pi_d_a13_a6_proc_0
     + 1278 pi_d_a6_a14_proc_0 + 1278 pi_d_a6_a14_proc_1
     + 1311 pi_d_a14_a6_proc_0 + 1311 pi_d_a14_a6_proc_1 + pi_d_a8_a7_proc_1
     + pi_d_a9_a7_proc_1 + 1278 pi_d_a7_a10_proc_1 + 1311 pi_d_a10_a7_proc_1
     + pi_d_a11_a7_proc_1 + pi_d_a7_a12_proc_1 + 1278 pi_d_a7_a14_proc_1
     + 1311 pi_d_a14_a7_proc_1 + pi_d_a8_a9_proc_1 + 1311 pi_d_a8_a10_proc_1
     + 1278 pi_d_a10_a8_proc_1 + pi_d_a8_a11_proc_1 + 2 pi_d_a8_a12_proc_1
     - pi_d_a12_a8_proc_1 + 1278 pi_d_a8_a14_proc_1 + 1311 pi_d_a14_a8_proc_1
     + 1278 pi_d_a9_a10_proc_1 + 1311 pi_d_a10_a9_proc_1 + pi_d_a11_a9_proc_1
     + pi_d_a9_a12_proc_1 + 1278 pi_d_a9_a14_proc_1 + 1311 pi_d_a14_a9_proc_1
     + 1311 pi_d_a10_a11_proc_1 + 1278 pi_d_a11_a10_proc_1
     + 1278 pi_d_a10_a12_proc_0 + 1278 pi_d_a10_a12_proc_1
     + 1311 pi_d_a12_a10_proc_0 + 1311 pi_d_a12_a10_proc_1 + pi_d_a10_a13_proc_0
     + 2588 pi_d_a10_a14_proc_1 + pi_d_a14_a10_proc_0 + 2589 pi_d_a14_a10_proc_1
     + pi_d_a11_a12_proc_1 + 1278 pi_d_a11_a14_proc_1 + 1311 pi_d_a14_a11_proc_1
     + 1311 pi_d_a12_a13_proc_0 + 1278 pi_d_a13_a12_proc_0
     + 1311 pi_d_a12_a14_proc_0 + 1311 pi_d_a12_a14_proc_1
     + 1278 pi_d_a14_a12_proc_0 + 1278 pi_d_a14_a12_proc_1 + pi_d_a14_a13_proc_0
     + pi_y2_a0_proc_0 + pi_y2_a1_proc_0 + pi_y2_a2_proc_0 + pi_y2_a3_proc_1
     + pi_y2_a4_proc_0 + pi_y2_a5_proc_1 + pi_y2_a6_proc_1 + pi_y2_a7_proc_1
     + pi_y2_a8_proc_1 + pi_y2_a9_proc_1 + pi_y2_a10_proc_0 + pi_y2_a11_proc_1
     + pi_y2_a12_proc_1 + pi_y2_a13_proc_0 + pi_y2_a14_proc_0 = 0.000133297787
 c2: pi_nr_a0 + pi_nr_a1 + pi_nr_a2 + pi_nr_a3 + pi_nr_a4 + pi_nr_a5 + pi_nr_a6
     + pi_nr_a7 + pi_nr_a8 + pi_nr_a9 + pi_nr_a10 + pi_nr_a11 + pi_nr_a12
     + pi_nr_a13 + pi_nr_a14 - pi_y1_a0 - pi_y1_a1 - pi_y1_a2 - pi_y1_a3
     - pi_y1_a4 - pi_y1_a5 - pi_y1_a6 - pi_y1_a7 - pi_y1_a8 - pi_y1_a9
     - pi_y1_a10 - pi_y1_a11 - pi_y1_a12 - pi_y1_a13 - pi_y1_a14 >= 1
 c3: - pi_p_a1_a0 + pi_p_a0_a3 + pi_p_a0_a5 - pi_p_a6_a0 + pi_d_a0_a1_proc_0
     - pi_d_a1_a0_proc_0 + pi_d_a0_a2_proc_0 - pi_d_a2_a0_proc_0
     + pi_d_a0_a4_proc_0 - pi_d_a4_a0_proc_0 + pi_d_a0_a6_proc_0
     - pi_d_a6_a0_proc_0 + pi_d_a0_a10_proc_0 - pi_d_a10_a0_proc_0
     + pi_d_a0_a12_proc_0 - pi_d_a12_a0_proc_0 + pi_d_a0_a13_proc_0
     - pi_d_a13_a0_proc_0 + pi_d_a0_a14_proc_0 - pi_d_a14_a0_proc_0 >= 0
 c4: 708 pi_p_a0_a3 + 708 pi_p_a0_a5 + 708 pi_d_a0_a1_proc_0
     + 708 pi_d_a0_a2_proc_0 + 708 pi_d_a0_a4_proc_0 + 708 pi_d_a0_a6_proc_0
     + 708 pi_d_a0_a10_proc_0 + 708 pi_d_a0_a12_proc_0 + 708 pi_d_a0_a13_proc_0
     + 708 pi_d_a0_a14_proc_0 + pi_y1_a0 + pi_y2_a0_proc_0 >= 0
 c5: pi_p_a1_a0 + pi_p_a1_a2 + pi_p_a1_a8 - pi_p_a11_a1 - pi_d_a0_a1_proc_0
     + pi_d_a1_a0_proc_0 + pi_d_a1_a2_proc_0 + pi_d_a1_a2_proc_1
     - pi_d_a2_a1_proc_0 - pi_d_a2_a1_proc_1 + pi_d_a1_a3_proc_1
     - pi_d_a3_a1_proc_1 + pi_d_a1_a4_proc_0 - pi_d_a4_a1_proc_0
     + pi_d_a1_a5_proc_1 - pi_d_a5_a1_proc_1 + pi_d_a1_a6_proc_0
     + pi_d_a1_a6_proc_1 - pi_d_a6_a1_proc_0 - pi_d_a6_a1_proc_1
     + pi_d_a1_a7_proc_1 - pi_d_a7_a1_proc_1 + pi_d_a1_a8_proc_1
     - pi_d_a8_a1_proc_1 + pi_d_a1_a9_proc_1 - pi_d_a9_a1_proc_1
     + pi_d_a1_a10_proc_0 + pi_d_a1_a10_proc_1 - pi_d_a10_a1_proc_0
     - pi_d_a10_a1_proc_1 + pi_d_a1_a11_proc_1 - pi_d_a11_a1_proc_1
     + pi_d_a1_a12_proc_0 + pi_d_a1_a12_proc_1 - pi_d_a12_a1_proc_0
     - pi_d_a12_a1_proc_1 + pi_d_a1_a13_proc_0 - pi_d_a13_a1_proc_0
     + pi_d_a1_a14_proc_0 + pi_d_a1_a14_proc_1 - pi_d_a14_a1_proc_0
     - pi_d_a14_a1_proc_1 >= 0
 c6: 714 pi_p_a1_a0 + 714 pi_p_a1_a2 + 714 pi_p_a1_a8 + 714 pi_d_a1_a0_proc_0
     + 714 pi_d_a1_a2_proc_0 + 714 pi_d_a1_a4_proc_0 + 714 pi_d_a1_a6_proc_0
     + 714 pi_d_a1_a10_proc_0 + 714 pi_d_a1_a12_proc_0 + 714 pi_d_a1_a13_proc_0
     + 714 pi_d_a1_a14_proc_0 + pi_y1_a1 + pi_y2_a1_proc_0 >= 0
 c7: 987 pi_p_a1_a0 + 987 pi_p_a1_a2 + 987 pi_p_a1_a8 + 987 pi_d_a1_a2_proc_1
     + 987 pi_d_a1_a3_proc_1 + 987 pi_d_a1_a5_proc_1 + 987 pi_d_a1_a6_proc_1
     + 987 pi_d_a1_a7_proc_1 + 987 pi_d_a1_a8_proc_1 + 987 pi_d_a1_a9_proc_1
     + 987 pi_d_a1_a10_proc_1 + 987 pi_d_a1_a11_proc_1 + 987 pi_d_a1_a12_proc_1
     + 987 pi_d_a1_a14_proc_1 + pi_y1_a1 + pi_y2_a1_proc_1 >= 0
 c8: - pi_p_a1_a2 - pi_p_a12_a2 + pi_p_a2_a7 - pi_p_a14_a2 - pi_d_a0_a2_proc_0
     + pi_d_a2_a0_proc_0 - pi_d_a1_a2_proc_0 - pi_d_a1_a2_proc_1
     + pi_d_a2_a1_proc_0 + pi_d_a2_a1_proc_1 + pi_d_a2_a3_proc_1
     - pi_d_a3_a2_proc_1 + pi_d_a2_a4_proc_0 - pi_d_a4_a2_proc_0
     + pi_d_a2_a5_proc_1 - pi_d_a5_a2_proc_1 + pi_d_a2_a6_proc_0
     + pi_d_a2_a6_proc_1 - pi_d_a6_a2_proc_0 - pi_d_a6_a2_proc_1
     + pi_d_a2_a7_proc_1 - pi_d_a7_a2_proc_1 + pi_d_a2_a8_proc_1
     - pi_d_a8_a2_proc_1 + pi_d_a2_a9_proc_1 - pi_d_a9_a2_proc_1
     + pi_d_a2_a10_proc_0 + pi_d_a2_a10_proc_1 - pi_d_a10_a2_proc_0
     - pi_d_a10_a2_proc_1 + pi_d_a2_a11_proc_1 - pi_d_a11_a2_proc_1
     + pi_d_a2_a12_proc_0 + pi_d_a2_a12_proc_1 - pi_d_a12_a2_proc_0
     - pi_d_a12_a2_proc_1 + pi_d_a2_a13_proc_0 - pi_d_a13_a2_proc_0
     + pi_d_a2_a14_proc_0 + pi_d_a2_a14_proc_1 - pi_d_a14_a2_proc_0
     - pi_d_a14_a2_proc_1 >= 0
 c9: 446 pi_p_a2_a7 + 446 pi_d_a2_a0_proc_0 + 446 pi_d_a2_a1_proc_0
     + 446 pi_d_a2_a4_proc_0 + 446 pi_d_a2_a6_proc_0 + 446 pi_d_a2_a10_proc_0
     + 446 pi_d_a2_a12_proc_0 + 446 pi_d_a2_a13_proc_0 + 446 pi_d_a2_a14_proc_0
     + pi_y1_a2 + pi_y2_a2_proc_0 >= 0
 c10: 296 pi_p_a2_a7 + 296 pi_d_a2_a1_proc_1 + 296 pi_d_a2_a3_proc_1
      + 296 pi_d_a2_a5_proc_1 + 296 pi_d_a2_a6_proc_1 + 296 pi_d_a2_a7_proc_1
      + 296 pi_d_a2_a8_proc_1 + 296 pi_d_a2_a9_proc_1 + 296 pi_d_a2_a10_proc_1
      + 296 pi_d_a2_a11_proc_1 + 296 pi_d_a2_a12_proc_1 + 296 pi_d_a2_a14_proc_1
      + pi_y1_a2 + pi_y2_a2_proc_1 >= 0
 c11: - pi_p_a0_a3 + pi_p_a3_a4 + pi_p_a3_a10 + pi_p_a3_a11 - pi_d_a1_a3_proc_1
      + pi_d_a3_a1_proc_1 - pi_d_a2_a3_proc_1 + pi_d_a3_a2_proc_1
      + pi_d_a3_a5_proc_1 - pi_d_a5_a3_proc_1 + pi_d_a3_a6_proc_1
      - pi_d_a6_a3_proc_1 + pi_d_a3_a7_proc_1 - pi_d_a7_a3_proc_1
      + pi_d_a3_a8_proc_1 - pi_d_a8_a3_proc_1 + pi_d_a3_a9_proc_1
      - pi_d_a9_a3_proc_1 + pi_d_a3_a10_proc_1 - pi_d_a10_a3_proc_1
      + pi_d_a3_a11_proc_1 - pi_d_a11_a3_proc_1 + pi_d_a3_a12_proc_1
      - pi_d_a12_a3_proc_1 + pi_d_a3_a14_proc_1 - pi_d_a14_a3_proc_1 >= 0
 c12: 593 pi_p_a3_a4 + 593 pi_p_a3_a10 + 593 pi_p_a3_a11 + 593 pi_d_a3_a1_proc_1
      + 593 pi_d_a3_a2_proc_1 + 593 pi_d_a3_a5_proc_1 + 593 pi_d_a3_a6_proc_1
      + 593 pi_d_a3_a7_proc_1 + 593 pi_d_a3_a8_proc_1 + 593 pi_d_a3_a9_proc_1
      + 593 pi_d_a3_a10_proc_1 + 593 pi_d_a3_a11_proc_1 + 593 pi_d_a3_a12_proc_1
      + 593 pi_d_a3_a14_proc_1 + pi_y1_a3 + pi_y2_a3_proc_1 >= 0
 c13: - pi_p_a3_a4 + pi_p_a4_a8 - pi_d_a0_a4_proc_0 + pi_d_a4_a0_proc_0
      - pi_d_a1_a4_proc_0 + pi_d_a4_a1_proc_0 - pi_d_a2_a4_proc_0
      + pi_d_a4_a2_proc_0 + pi_d_a4_a6_proc_0 - pi_d_a6_a4_proc_0
      + pi_d_a4_a10_proc_0 - pi_d_a10_a4_proc_0 + pi_d_a4_a12_proc_0
      - pi_d_a12_a4_proc_0 + pi_d_a4_a13_proc_0 - pi_d_a13_a4_proc_0
      + pi_d_a4_a14_proc_0 - pi_d_a14_a4_proc_0 >= 0
 c14: 958 pi_p_a4_a8 + 958 pi_d_a4_a0_proc_0 + 958 pi_d_a4_a1_proc_0
      + 958 pi_d_a4_a2_proc_0 + 958 pi_d_a4_a6_proc_0 + 958 pi_d_a4_a10_proc_0
      + 958 pi_d_a4_a12_proc_0 + 958 pi_d_a4_a13_proc_0 + 958 pi_d_a4_a14_proc_0
      + pi_y1_a4 + pi_y2_a4_proc_0 >= 0
 c15: - pi_p_a0_a5 + pi_p_a5_a13 - pi_p_a10_a5 - pi_p_a6_a5 - pi_d_a1_a5_proc_1
      + pi_d_a5_a1_proc_1 - pi_d_a2_a5_proc_1 + pi_d_a5_a2_proc_1
      - pi_d_a3_a5_proc_1 + pi_d_a5_a3_proc_1 + pi_d_a5_a6_proc_1
      - pi_d_a6_a5_proc_1 + pi_d_a5_a7_proc_1 - pi_d_a7_a5_proc_1
      + pi_d_a5_a8_proc_1 - pi_d_a8_a5_proc_1 + pi_d_a5_a9_proc_1
      - pi_d_a9_a5_proc_1 + pi_d_a5_a10_proc_1 - pi_d_a10_a5_proc_1
      + pi_d_a5_a11_proc_1 - pi_d_a11_a5_proc_1 + pi_d_a5_a12_proc_1
      - pi_d_a12_a5_proc_1 + pi_d_a5_a14_proc_1 - pi_d_a14_a5_proc_1 >= 0
 c16: 1024 pi_p_a5_a13 + 1024 pi_d_a5_a1_proc_1 + 1024 pi_d_a5_a2_proc_1
      + 1024 pi_d_a5_a3_proc_1 + 1024 pi_d_a5_a6_proc_1 + 1024 pi_d_a5_a7_proc_1
      + 1024 pi_d_a5_a8_proc_1 + 1024 pi_d_a5_a9_proc_1
      + 1024 pi_d_a5_a10_proc_1 + 1024 pi_d_a5_a11_proc_1
      + 1024 pi_d_a5_a12_proc_1 + 1024 pi_d_a5_a14_proc_1 + pi_y1_a5
      + pi_y2_a5_proc_1 >= 0
 c17: pi_p_a6_a0 - pi_p_a7_a6 - pi_p_a13_a6 + pi_p_a6_a5 - pi_d_a0_a6_proc_0
      + pi_d_a6_a0_proc_0 - pi_d_a1_a6_proc_0 - pi_d_a1_a6_proc_1
      + pi_d_a6_a1_proc_0 + pi_d_a6_a1_proc_1 - pi_d_a2_a6_proc_0
      - pi_d_a2_a6_proc_1 + pi_d_a6_a2_proc_0 + pi_d_a6_a2_proc_1
      - pi_d_a3_a6_proc_1 + pi_d_a6_a3_proc_1 - pi_d_a4_a6_proc_0
      + pi_d_a6_a4_proc_0 - pi_d_a5_a6_proc_1 + pi_d_a6_a5_proc_1
      + pi_d_a6_a7_proc_1 - pi_d_a7_a6_proc_1 + pi_d_a6_a8_proc_1
      - pi_d_a8_a6_proc_1 + pi_d_a6_a9_proc_1 - pi_d_a9_a6_proc_1
      + pi_d_a6_a10_proc_0 + pi_d_a6_a10_proc_1 - pi_d_a10_a6_proc_0
      - pi_d_a10_a6_proc_1 + pi_d_a6_a11_proc_1 - pi_d_a11_a6_proc_1
      + pi_d_a6_a12_proc_0 + pi_d_a6_a12_proc_1 - pi_d_a12_a6_proc_0
      - pi_d_a12_a6_proc_1 + pi_d_a6_a13_proc_0 - pi_d_a13_a6_proc_0
      + pi_d_a6_a14_proc_0 + pi_d_a6_a14_proc_1 - pi_d_a14_a6_proc_0
      - pi_d_a14_a6_proc_1 >= 0
 c18: 667 pi_p_a6_a0 + 667 pi_p_a6_a5 + 667 pi_d_a6_a0_proc_0
      + 667 pi_d_a6_a1_proc_0 + 667 pi_d_a6_a2_proc_0 + 667 pi_d_a6_a4_proc_0
      + 667 pi_d_a6_a10_proc_0 + 667 pi_d_a6_a12_proc_0 + 667 pi_d_a6_a13_proc_0
      + 667 pi_d_a6_a14_proc_0 + pi_y1_a6 + pi_y2_a6_proc_0 >= 0
 c19: 1180 pi_p_a6_a0 + 1180 pi_p_a6_a5 + 1180 pi_d_a6_a1_proc_1
      + 1180 pi_d_a6_a2_proc_1 + 1180 pi_d_a6_a3_proc_1 + 1180 pi_d_a6_a5_proc_1
      + 1180 pi_d_a6_a7_proc_1 + 1180 pi_d_a6_a8_proc_1 + 1180 pi_d_a6_a9_proc_1
      + 1180 pi_d_a6_a10_proc_1 + 1180 pi_d_a6_a11_proc_1
      + 1180 pi_d_a6_a12_proc_1 + 1180 pi_d_a6_a14_proc_1 + pi_y1_a6
      + pi_y2_a6_proc_1 >= 0
 c20: pi_p_a7_a6 - pi_p_a2_a7 - pi_p_a13_a7 + pi_p_a7_a9 - pi_d_a1_a7_proc_1
      + pi_d_a7_a1_proc_1 - pi_d_a2_a7_proc_1 + pi_d_a7_a2_proc_1
      - pi_d_a3_a7_proc_1 + pi_d_a7_a3_proc_1 - pi_d_a5_a7_proc_1
      + pi_d_a7_a5_proc_1 - pi_d_a6_a7_proc_1 + pi_d_a7_a6_proc_1
      + pi_d_a7_a8_proc_1 - pi_d_a8_a7_proc_1 + pi_d_a7_a9_proc_1
      - pi_d_a9_a7_proc_1 + pi_d_a7_a10_proc_1 - pi_d_a10_a7_proc_1
      + pi_d_a7_a11_proc_1 - pi_d_a11_a7_proc_1 + pi_d_a7_a12_proc_1
      - pi_d_a12_a7_proc_1 + pi_d_a7_a14_proc_1 - pi_d_a14_a7_proc_1 >= 0
 c21: 523 pi_p_a7_a6 + 523 pi_p_a7_a9 + 523 pi_d_a7_a1_proc_1
      + 523 pi_d_a7_a2_proc_1 + 523 pi_d_a7_a3_proc_1 + 523 pi_d_a7_a5_proc_1
      + 523 pi_d_a7_a6_proc_1 + 523 pi_d_a7_a8_proc_1 + 523 pi_d_a7_a9_proc_1
      + 523 pi_d_a7_a10_proc_1 + 523 pi_d_a7_a11_proc_1 + 523 pi_d_a7_a12_proc_1
      + 523 pi_d_a7_a14_proc_1 + pi_y1_a7 + pi_y2_a7_proc_1 >= 0
 c22: - pi_p_a1_a8 - pi_p_a9_a8 + pi_p_a8_a10 - pi_p_a4_a8 - pi_d_a1_a8_proc_1
      + pi_d_a8_a1_proc_1 - pi_d_a2_a8_proc_1 + pi_d_a8_a2_proc_1
      - pi_d_a3_a8_proc_1 + pi_d_a8_a3_proc_1 - pi_d_a5_a8_proc_1
      + pi_d_a8_a5_proc_1 - pi_d_a6_a8_proc_1 + pi_d_a8_a6_proc_1
      - pi_d_a7_a8_proc_1 + pi_d_a8_a7_proc_1 + pi_d_a8_a9_proc_1
      - pi_d_a9_a8_proc_1 + pi_d_a8_a10_proc_1 - pi_d_a10_a8_proc_1
      + pi_d_a8_a11_proc_1 - pi_d_a11_a8_proc_1 + pi_d_a8_a12_proc_1
      - pi_d_a12_a8_proc_1 + pi_d_a8_a14_proc_1 - pi_d_a14_a8_proc_1 >= 0
 c23: 829 pi_p_a8_a10 + 829 pi_d_a8_a1_proc_1 + 829 pi_d_a8_a2_proc_1
      + 829 pi_d_a8_a3_proc_1 + 829 pi_d_a8_a5_proc_1 + 829 pi_d_a8_a6_proc_1
      + 829 pi_d_a8_a7_proc_1 + 829 pi_d_a8_a9_proc_1 + 829 pi_d_a8_a10_proc_1
      + 829 pi_d_a8_a11_proc_1 + 829 pi_d_a8_a12_proc_1 + 829 pi_d_a8_a14_proc_1
      + pi_y1_a8 + pi_y2_a8_proc_1 >= 0
 c24: pi_p_a9_a8 - pi_p_a7_a9 - pi_d_a1_a9_proc_1 + pi_d_a9_a1_proc_1
      - pi_d_a2_a9_proc_1 + pi_d_a9_a2_proc_1 - pi_d_a3_a9_proc_1
      + pi_d_a9_a3_proc_1 - pi_d_a5_a9_proc_1 + pi_d_a9_a5_proc_1
      - pi_d_a6_a9_proc_1 + pi_d_a9_a6_proc_1 - pi_d_a7_a9_proc_1
      + pi_d_a9_a7_proc_1 - pi_d_a8_a9_proc_1 + pi_d_a9_a8_proc_1
      + pi_d_a9_a10_proc_1 - pi_d_a10_a9_proc_1 + pi_d_a9_a11_proc_1
      - pi_d_a11_a9_proc_1 + pi_d_a9_a12_proc_1 - pi_d_a12_a9_proc_1
      + pi_d_a9_a14_proc_1 - pi_d_a14_a9_proc_1 >= 0
 c25: 1020 pi_p_a9_a8 + 1020 pi_d_a9_a1_proc_1 + 1020 pi_d_a9_a2_proc_1
      + 1020 pi_d_a9_a3_proc_1 + 1020 pi_d_a9_a5_proc_1 + 1020 pi_d_a9_a6_proc_1
      + 1020 pi_d_a9_a7_proc_1 + 1020 pi_d_a9_a8_proc_1
      + 1020 pi_d_a9_a10_proc_1 + 1020 pi_d_a9_a11_proc_1
      + 1020 pi_d_a9_a12_proc_1 + 1020 pi_d_a9_a14_proc_1 + pi_y1_a9
      + pi_y2_a9_proc_1 >= 0
 c26: - pi_p_a3_a10 - pi_p_a8_a10 + pi_p_a10_a5 + pi_p_a10_a14
      - pi_d_a0_a10_proc_0 + pi_d_a10_a0_proc_0 - pi_d_a1_a10_proc_0
      - pi_d_a1_a10_proc_1 + pi_d_a10_a1_proc_0 + pi_d_a10_a1_proc_1
      - pi_d_a2_a10_proc_0 - pi_d_a2_a10_proc_1 + pi_d_a10_a2_proc_0
      + pi_d_a10_a2_proc_1 - pi_d_a3_a10_proc_1 + pi_d_a10_a3_proc_1
      - pi_d_a4_a10_proc_0 + pi_d_a10_a4_proc_0 - pi_d_a5_a10_proc_1
      + pi_d_a10_a5_proc_1 - pi_d_a6_a10_proc_0 - pi_d_a6_a10_proc_1
      + pi_d_a10_a6_proc_0 + pi_d_a10_a6_proc_1 - pi_d_a7_a10_proc_1
      + pi_d_a10_a7_proc_1 - pi_d_a8_a10_proc_1 + pi_d_a10_a8_proc_1
      - pi_d_a9_a10_proc_1 + pi_d_a10_a9_proc_1 + pi_d_a10_a11_proc_1
      - pi_d_a11_a10_proc_1 + pi_d_a10_a12_proc_0 + pi_d_a10_a12_proc_1
      - pi_d_a12_a10_proc_0 - pi_d_a12_a10_proc_1 + pi_d_a10_a13_proc_0
      - pi_d_a13_a10_proc_0 + pi_d_a10_a14_proc_0 + pi_d_a10_a14_proc_1
      - pi_d_a14_a10_proc_0 - pi_d_a14_a10_proc_1 >= 0
 c27: 784 pi_p_a10_a5 + 784 pi_p_a10_a14 + 784 pi_d_a10_a0_proc_0
      + 784 pi_d_a10_a1_proc_0 + 784 pi_d_a10_a2_proc_0 + 784 pi_d_a10_a4_proc_0
      + 784 pi_d_a10_a6_proc_0 + 784 pi_d_a10_a12_proc_0
      + 784 pi_d_a10_a13_proc_0 + 784 pi_d_a10_a14_proc_0 + pi_y1_a10
      + pi_y2_a10_proc_0 >= 0
 c28: 1031 pi_p_a10_a5 + 1031 pi_p_a10_a14 + 1031 pi_d_a10_a1_proc_1
      + 1031 pi_d_a10_a2_proc_1 + 1031 pi_d_a10_a3_proc_1
      + 1031 pi_d_a10_a5_proc_1 + 1031 pi_d_a10_a6_proc_1
      + 1031 pi_d_a10_a7_proc_1 + 1031 pi_d_a10_a8_proc_1
      + 1031 pi_d_a10_a9_proc_1 + 1031 pi_d_a10_a11_proc_1
      + 1031 pi_d_a10_a12_proc_1 + 1031 pi_d_a10_a14_proc_1 + pi_y1_a10
      + pi_y2_a10_proc_1 >= 0
 c29: pi_p_a11_a1 - pi_p_a3_a11 - pi_d_a1_a11_proc_1 + pi_d_a11_a1_proc_1
      - pi_d_a2_a11_proc_1 + pi_d_a11_a2_proc_1 - pi_d_a3_a11_proc_1
      + pi_d_a11_a3_proc_1 - pi_d_a5_a11_proc_1 + pi_d_a11_a5_proc_1
      - pi_d_a6_a11_proc_1 + pi_d_a11_a6_proc_1 - pi_d_a7_a11_proc_1
      + pi_d_a11_a7_proc_1 - pi_d_a8_a11_proc_1 + pi_d_a11_a8_proc_1
      - pi_d_a9_a11_proc_1 + pi_d_a11_a9_proc_1 - pi_d_a10_a11_proc_1
      + pi_d_a11_a10_proc_1 + pi_d_a11_a12_proc_1 - pi_d_a12_a11_proc_1
      + pi_d_a11_a14_proc_1 - pi_d_a14_a11_proc_1 >= 0
 c30: 1294 pi_p_a11_a1 + 1294 pi_d_a11_a1_proc_1 + 1294 pi_d_a11_a2_proc_1
      + 1294 pi_d_a11_a3_proc_1 + 1294 pi_d_a11_a5_proc_1
      + 1294 pi_d_a11_a6_proc_1 + 1294 pi_d_a11_a7_proc_1
      + 1294 pi_d_a11_a8_proc_1 + 1294 pi_d_a11_a9_proc_1
      + 1294 pi_d_a11_a10_proc_1 + 1294 pi_d_a11_a12_proc_1
      + 1294 pi_d_a11_a14_proc_1 + pi_y1_a11 + pi_y2_a11_proc_1 >= 0
 c31: pi_p_a12_a2 - pi_p_a13_a12 - pi_d_a0_a12_proc_0 + pi_d_a12_a0_proc_0
      - pi_d_a1_a12_proc_0 - pi_d_a1_a12_proc_1 + pi_d_a12_a1_proc_0
      + pi_d_a12_a1_proc_1 - pi_d_a2_a12_proc_0 - pi_d_a2_a12_proc_1
      + pi_d_a12_a2_proc_0 + pi_d_a12_a2_proc_1 - pi_d_a3_a12_proc_1
      + pi_d_a12_a3_proc_1 - pi_d_a4_a12_proc_0 + pi_d_a12_a4_proc_0
      - pi_d_a5_a12_proc_1 + pi_d_a12_a5_proc_1 - pi_d_a6_a12_proc_0
      - pi_d_a6_a12_proc_1 + pi_d_a12_a6_proc_0 + pi_d_a12_a6_proc_1
      - pi_d_a7_a12_proc_1 + pi_d_a12_a7_proc_1 - pi_d_a8_a12_proc_1
      + pi_d_a12_a8_proc_1 - pi_d_a9_a12_proc_1 + pi_d_a12_a9_proc_1
      - pi_d_a10_a12_proc_0 - pi_d_a10_a12_proc_1 + pi_d_a12_a10_proc_0
      + pi_d_a12_a10_proc_1 - pi_d_a11_a12_proc_1 + pi_d_a12_a11_proc_1
      + pi_d_a12_a13_proc_0 - pi_d_a13_a12_proc_0 + pi_d_a12_a14_proc_0
      + pi_d_a12_a14_proc_1 - pi_d_a14_a12_proc_0 - pi_d_a14_a12_proc_1 >= 0
 c32: 1113 pi_p_a12_a2 + 1113 pi_d_a12_a0_proc_0 + 1113 pi_d_a12_a1_proc_0
      + 1113 pi_d_a12_a2_proc_0 + 1113 pi_d_a12_a4_proc_0
      + 1113 pi_d_a12_a6_proc_0 + 1113 pi_d_a12_a10_proc_0
      + 1113 pi_d_a12_a13_proc_0 + 1113 pi_d_a12_a14_proc_0 + pi_y1_a12
      + pi_y2_a12_proc_0 >= 0
 c33: 558 pi_p_a12_a2 + 558 pi_d_a12_a1_proc_1 + 558 pi_d_a12_a2_proc_1
      + 558 pi_d_a12_a3_proc_1 + 558 pi_d_a12_a5_proc_1 + 558 pi_d_a12_a6_proc_1
      + 558 pi_d_a12_a7_proc_1 + 558 pi_d_a12_a8_proc_1 + 558 pi_d_a12_a9_proc_1
      + 558 pi_d_a12_a10_proc_1 + 558 pi_d_a12_a11_proc_1
      + 558 pi_d_a12_a14_proc_1 + pi_y1_a12 + pi_y2_a12_proc_1 >= 0
 c34: - pi_p_a5_a13 - pi_p_a14_a13 + pi_p_a13_a6 + pi_p_a13_a12 + pi_p_a13_a7
      - pi_d_a0_a13_proc_0 + pi_d_a13_a0_proc_0 - pi_d_a1_a13_proc_0
      + pi_d_a13_a1_proc_0 - pi_d_a2_a13_proc_0 + pi_d_a13_a2_proc_0
      - pi_d_a4_a13_proc_0 + pi_d_a13_a4_proc_0 - pi_d_a6_a13_proc_0
      + pi_d_a13_a6_proc_0 - pi_d_a10_a13_proc_0 + pi_d_a13_a10_proc_0
      - pi_d_a12_a13_proc_0 + pi_d_a13_a12_proc_0 + pi_d_a13_a14_proc_0
      - pi_d_a14_a13_proc_0 >= 0
 c35: 880 pi_p_a13_a6 + 880 pi_p_a13_a12 + 880 pi_p_a13_a7
      + 880 pi_d_a13_a0_proc_0 + 880 pi_d_a13_a1_proc_0 + 880 pi_d_a13_a2_proc_0
      + 880 pi_d_a13_a4_proc_0 + 880 pi_d_a13_a6_proc_0
      + 880 pi_d_a13_a10_proc_0 + 880 pi_d_a13_a12_proc_0
      + 880 pi_d_a13_a14_proc_0 + pi_y1_a13 + pi_y2_a13_proc_0 >= 0
 c36: pi_p_a14_a13 + pi_p_a14_a2 - pi_p_a10_a14 - pi_d_a0_a14_proc_0
      + pi_d_a14_a0_proc_0 - pi_d_a1_a14_proc_0 - pi_d_a1_a14_proc_1
      + pi_d_a14_a1_proc_0 + pi_d_a14_a1_proc_1 - pi_d_a2_a14_proc_0
      - pi_d_a2_a14_proc_1 + pi_d_a14_a2_proc_0 + pi_d_a14_a2_proc_1
      - pi_d_a3_a14_proc_1 + pi_d_a14_a3_proc_1 - pi_d_a4_a14_proc_0
      + pi_d_a14_a4_proc_0 - pi_d_a5_a14_proc_1 + pi_d_a14_a5_proc_1
      - pi_d_a6_a14_proc_0 - pi_d_a6_a14_proc_1 + pi_d_a14_a6_proc_0
      + pi_d_a14_a6_proc_1 - pi_d_a7_a14_proc_1 + pi_d_a14_a7_proc_1
      - pi_d_a8_a14_proc_1 + pi_d_a14_a8_proc_1 - pi_d_a9_a14_proc_1
      + pi_d_a14_a9_proc_1 - pi_d_a10_a14_proc_0 - pi_d_a10_a14_proc_1
      + pi_d_a14_a10_proc_0 + pi_d_a14_a10_proc_1 - pi_d_a11_a14_proc_1
      + pi_d_a14_a11_proc_1 - pi_d_a12_a14_proc_0 - pi_d_a12_a14_proc_1
      + pi_d_a14_a12_proc_0 + pi_d_a14_a12_proc_1 - pi_d_a13_a14_proc_0
      + pi_d_a14_a13_proc_0 >= 0
 c37: 663 pi_p_a14_a13 + 663 pi_p_a14_a2 + 663 pi_d_a14_a0_proc_0
      + 663 pi_d_a14_a1_proc_0 + 663 pi_d_a14_a2_proc_0 + 663 pi_d_a14_a4_proc_0
      + 663 pi_d_a14_a6_proc_0 + 663 pi_d_a14_a10_proc_0
      + 663 pi_d_a14_a12_proc_0 + 663 pi_d_a14_a13_proc_0 + pi_y1_a14
      + pi_y2_a14_proc_0 >= 0
 c38: 830 pi_p_a14_a13 + 830 pi_p_a14_a2 + 830 pi_d_a14_a1_proc_1
      + 830 pi_d_a14_a2_proc_1 + 830 pi_d_a14_a3_proc_1 + 830 pi_d_a14_a5_proc_1
      + 830 pi_d_a14_a6_proc_1 + 830 pi_d_a14_a7_proc_1 + 830 pi_d_a14_a8_proc_1
      + 830 pi_d_a14_a9_proc_1 + 830 pi_d_a14_a10_proc_1
      + 830 pi_d_a14_a11_proc_1 + 830 pi_d_a14_a12_proc_1 + pi_y1_a14
      + pi_y2_a14_proc_1 >= 0

Bounds
       pi_y1_a0 Free
       pi_y1_a1 Free
       pi_y1_a2 Free
       pi_y1_a3 Free
       pi_y1_a4 Free
       pi_y1_a5 Free
       pi_y1_a6 Free
       pi_y1_a7 Free
       pi_y1_a8 Free
       pi_y1_a9 Free
       pi_y1_a10 Free
       pi_y1_a11 Free
       pi_y1_a12 Free
       pi_y1_a13 Free
       pi_y1_a14 Free
End
