benchmark/results/graph__15-1000-0.10-02_9/graph__15-1000-0.10-02_9_QuintonOs_Benders_aux.txt
solution for: Quinton Bounded Benders_auxiliary_sub
objective: 0.000940411
status: OPTIMAL_SOLUTION(2)
pi_p_a1_a2=0.000
pi_p_a0_a3=0.000
pi_p_a7_a6=0.000
pi_p_a11_a1=0.000
pi_d_a2_a0_proc_0=0.000
pi_d_a3_a7_proc_1=0.000
pi_d_a9_a5_proc_1=0.000
pi_d_a5_a11_proc_1=0.000
pi_d_a6_a9_proc_1=0.000
pi_y1_a0=-0.094
pi_y1_a1=-0.095
pi_y1_a2=-0.059
pi_y1_a3=-0.079
pi_y1_a5=-0.136
pi_y1_a6=-0.157
pi_y1_a7=-0.070
pi_y1_a9=-0.136
pi_y1_a11=-0.172
pi_y2_a2_proc_1=0.059
pi_y2_a6_proc_0=0.157
